
Gurobi 9.5.2 (mac64[arm]) logging started Fri Apr 21 22:08:29 2023

Set parameter LogFile to value "./ccga_results/2023-04-21 22-08-28-621/MSP_TimeStampConvert_gurobi_log.txt"

Gurobi 9.5.2 (mac64[arm]) logging started Fri Apr 21 22:08:29 2023

Set parameter LogFile to value "./ccga_results/2023-04-21 22-08-28-621/MSP_TimeStampConvert_gurobi_log.txt"
Set parameter TimeLimit to value 180
Gurobi Optimizer version 9.5.2 build v9.5.2rc0 (mac64[arm])
Thread count: 8 physical cores, 8 logical processors, using up to 8 threads
Optimize a model with 600 rows, 457 columns and 1482 nonzeros
Model fingerprint: 0xe63f0f4b
Variable types: 25 continuous, 432 integer (432 binary)
Coefficient statistics:
  Matrix range     [1e+00, 1e+00]
  Objective range  [1e+00, 1e+00]
  Bounds range     [1e+03, 1e+03]
  RHS range        [1e+00, 1e+00]
Found heuristic solution: objective 24000.000000

Explored 0 nodes (0 simplex iterations) in 0.00 seconds (0.00 work units)
Thread count was 1 (of 8 available processors)

Solution count 1: 24000 

Optimal solution found (tolerance 5.00e-02)
Best objective 2.400000000000e+04, best bound 2.400000000000e+04, gap 0.0000%

User-callback calls 21, time in user-callback 0.00 sec
Gurobi Optimizer version 9.5.2 build v9.5.2rc0 (mac64[arm])
Thread count: 8 physical cores, 8 logical processors, using up to 8 threads
Optimize a model with 2149 rows, 961 columns and 6467 nonzeros
Model fingerprint: 0xb06d9d15
Variable types: 481 continuous, 480 integer (480 binary)
Coefficient statistics:
  Matrix range     [4e-01, 8e+02]
  Objective range  [1e+00, 1e+00]
  Bounds range     [1e+03, 1e+03]
  RHS range        [1e+00, 6e+06]

MIP start from previous solve did not produce a new incumbent solution

Presolve removed 431 rows and 137 columns
Presolve time: 0.01s
Presolved: 1718 rows, 824 columns, 5705 nonzeros
Variable types: 404 continuous, 420 integer (420 binary)
Found heuristic solution: objective 21661.111111

Root relaxation: objective 2.330000e+04, 299 iterations, 0.00 seconds (0.00 work units)

    Nodes    |    Current Node    |     Objective Bounds      |     Work
 Expl Unexpl |  Obj  Depth IntInf | Incumbent    BestBd   Gap | It/Node Time

*    0     0               0    23300.000000 23300.0000  0.00%     -    0s

Explored 1 nodes (573 simplex iterations) in 0.04 seconds (0.05 work units)
Thread count was 8 (of 8 available processors)

Solution count 2: 23300 21661.1 

Optimal solution found (tolerance 5.00e-02)
Best objective 2.330000000000e+04, best bound 2.330000000000e+04, gap 0.0000%

User-callback calls 623, time in user-callback 0.00 sec
Gurobi Optimizer version 9.5.2 build v9.5.2rc0 (mac64[arm])
Thread count: 8 physical cores, 8 logical processors, using up to 8 threads
Optimize a model with 3698 rows, 1465 columns and 11452 nonzeros
Model fingerprint: 0x0d15307b
Variable types: 937 continuous, 528 integer (528 binary)
Coefficient statistics:
  Matrix range     [4e-01, 8e+02]
  Objective range  [1e+00, 1e+00]
  Bounds range     [1e+03, 1e+03]
  RHS range        [1e+00, 6e+06]

MIP start from previous solve did not produce a new incumbent solution

Presolve removed 814 rows and 253 columns
Presolve time: 0.02s
Presolved: 2884 rows, 1212 columns, 10042 nonzeros
Variable types: 792 continuous, 420 integer (420 binary)
Found heuristic solution: objective 19906.666667

Root relaxation: objective 2.302000e+04, 873 iterations, 0.01 seconds (0.01 work units)

    Nodes    |    Current Node    |     Objective Bounds      |     Work
 Expl Unexpl |  Obj  Depth IntInf | Incumbent    BestBd   Gap | It/Node Time

*    0     0               0    23020.000000 23020.0000  0.00%     -    0s

Explored 1 nodes (1209 simplex iterations) in 0.08 seconds (0.09 work units)
Thread count was 8 (of 8 available processors)

Solution count 2: 23020 19906.7 

Optimal solution found (tolerance 5.00e-02)
Best objective 2.302000000000e+04, best bound 2.302000000000e+04, gap 0.0000%

User-callback calls 540, time in user-callback 0.00 sec
Gurobi Optimizer version 9.5.2 build v9.5.2rc0 (mac64[arm])
Thread count: 8 physical cores, 8 logical processors, using up to 8 threads
Optimize a model with 5247 rows, 1969 columns and 16437 nonzeros
Model fingerprint: 0xbf22b21b
Variable types: 1393 continuous, 576 integer (576 binary)
Coefficient statistics:
  Matrix range     [4e-01, 8e+02]
  Objective range  [1e+00, 1e+00]
  Bounds range     [1e+03, 1e+03]
  RHS range        [1e+00, 6e+06]

MIP start from previous solve did not produce a new incumbent solution

Presolve removed 1196 rows and 372 columns
Presolve time: 0.04s
Presolved: 4051 rows, 1597 columns, 14375 nonzeros
Variable types: 1177 continuous, 420 integer (420 binary)

Root relaxation: objective 2.162577e+04, 1521 iterations, 0.02 seconds (0.02 work units)

    Nodes    |    Current Node    |     Objective Bounds      |     Work
 Expl Unexpl |  Obj  Depth IntInf | Incumbent    BestBd   Gap | It/Node Time

     0     0 21625.7660    0   12          - 21625.7660      -     -    0s
H    0     0                    21250.000000 21625.7660  1.77%     -    0s

Cutting planes:
  Gomory: 5
  Implied bound: 1
  MIR: 15
  Flow cover: 26
  Relax-and-lift: 2

Explored 1 nodes (2619 simplex iterations) in 0.15 seconds (0.19 work units)
Thread count was 8 (of 8 available processors)

Solution count 1: 21250 

Optimal solution found (tolerance 5.00e-02)
Best objective 2.125000000000e+04, best bound 2.162576599327e+04, gap 1.7683%

User-callback calls 564, time in user-callback 0.00 sec
Gurobi Optimizer version 9.5.2 build v9.5.2rc0 (mac64[arm])
Thread count: 8 physical cores, 8 logical processors, using up to 8 threads
Optimize a model with 6796 rows, 2473 columns and 21422 nonzeros
Model fingerprint: 0xa61eeb94
Variable types: 1849 continuous, 624 integer (624 binary)
Coefficient statistics:
  Matrix range     [4e-01, 8e+02]
  Objective range  [1e+00, 1e+00]
  Bounds range     [1e+03, 1e+03]
  RHS range        [1e+00, 6e+06]

MIP start from previous solve did not produce a new incumbent solution

Presolve removed 1577 rows and 490 columns
Presolve time: 0.04s
Presolved: 5219 rows, 1983 columns, 18287 nonzeros
Variable types: 1560 continuous, 423 integer (420 binary)

Root relaxation: objective 2.058311e+04, 2470 iterations, 0.04 seconds (0.03 work units)

    Nodes    |    Current Node    |     Objective Bounds      |     Work
 Expl Unexpl |  Obj  Depth IntInf | Incumbent    BestBd   Gap | It/Node Time

     0     0 20583.1122    0   29          - 20583.1122      -     -    0s
H    0     0                    20276.111111 20583.1122  1.51%     -    0s

Cutting planes:
  Gomory: 12
  MIR: 33
  Flow cover: 69
  Relax-and-lift: 6

Explored 1 nodes (3030 simplex iterations) in 0.23 seconds (0.26 work units)
Thread count was 8 (of 8 available processors)

Solution count 1: 20276.1 

Optimal solution found (tolerance 5.00e-02)
Best objective 2.027611111111e+04, best bound 2.057166035954e+04, gap 1.4576%

User-callback calls 619, time in user-callback 0.00 sec
Gurobi Optimizer version 9.5.2 build v9.5.2rc0 (mac64[arm])
Thread count: 8 physical cores, 8 logical processors, using up to 8 threads
Optimize a model with 8345 rows, 2977 columns and 26407 nonzeros
Model fingerprint: 0xf4105125
Variable types: 2305 continuous, 672 integer (672 binary)
Coefficient statistics:
  Matrix range     [4e-01, 8e+02]
  Objective range  [1e+00, 1e+00]
  Bounds range     [1e+03, 1e+03]
  RHS range        [1e+00, 6e+06]

MIP start from previous solve did not produce a new incumbent solution

Presolve removed 1960 rows and 610 columns
Presolve time: 0.05s
Presolved: 6385 rows, 2367 columns, 22477 nonzeros
Variable types: 1944 continuous, 423 integer (420 binary)

Root relaxation: objective 1.950773e+04, 3344 iterations, 0.05 seconds (0.04 work units)

    Nodes    |    Current Node    |     Objective Bounds      |     Work
 Expl Unexpl |  Obj  Depth IntInf | Incumbent    BestBd   Gap | It/Node Time

     0     0 19507.7262    0   31          - 19507.7262      -     -    0s
H    0     0                    19038.611111 19507.7262  2.46%     -    0s
H    0     0                    19111.111111 19507.7262  2.08%     -    0s

Cutting planes:
  Gomory: 9
  Implied bound: 1
  MIR: 41
  Flow cover: 57
  Relax-and-lift: 7

Explored 1 nodes (3846 simplex iterations) in 0.31 seconds (0.35 work units)
Thread count was 8 (of 8 available processors)

Solution count 2: 19111.1 19038.6 

Optimal solution found (tolerance 5.00e-02)
Best objective 1.911111111111e+04, best bound 1.950542108843e+04, gap 2.0632%

User-callback calls 642, time in user-callback 0.00 sec
Gurobi Optimizer version 9.5.2 build v9.5.2rc0 (mac64[arm])
Thread count: 8 physical cores, 8 logical processors, using up to 8 threads
Optimize a model with 9894 rows, 3481 columns and 31392 nonzeros
Model fingerprint: 0xad018a9e
Variable types: 2761 continuous, 720 integer (720 binary)
Coefficient statistics:
  Matrix range     [4e-01, 8e+02]
  Objective range  [1e+00, 1e+00]
  Bounds range     [1e+03, 1e+03]
  RHS range        [1e+00, 6e+06]

MIP start from previous solve did not produce a new incumbent solution

Presolve removed 2342 rows and 729 columns
Presolve time: 0.06s
Presolved: 7552 rows, 2752 columns, 26669 nonzeros
Variable types: 2329 continuous, 423 integer (420 binary)

Root relaxation: objective 1.842038e+04, 4115 iterations, 0.07 seconds (0.06 work units)

    Nodes    |    Current Node    |     Objective Bounds      |     Work
 Expl Unexpl |  Obj  Depth IntInf | Incumbent    BestBd   Gap | It/Node Time

     0     0 18420.3839    0   37          - 18420.3839      -     -    0s
H    0     0                    17731.111111 18420.3839  3.89%     -    0s
H    0     0                    17942.222222 18420.3839  2.67%     -    0s

Cutting planes:
  Gomory: 15
  MIR: 73
  Flow cover: 104
  Relax-and-lift: 7

Explored 1 nodes (4873 simplex iterations) in 0.39 seconds (0.45 work units)
Thread count was 8 (of 8 available processors)

Solution count 2: 17942.2 17731.1 

Optimal solution found (tolerance 5.00e-02)
Best objective 1.794222222222e+04, best bound 1.841388392774e+04, gap 2.6288%

User-callback calls 604, time in user-callback 0.00 sec
Gurobi Optimizer version 9.5.2 build v9.5.2rc0 (mac64[arm])
Thread count: 8 physical cores, 8 logical processors, using up to 8 threads
Optimize a model with 11443 rows, 3985 columns and 36377 nonzeros
Model fingerprint: 0xdcb94b3c
Variable types: 3217 continuous, 768 integer (768 binary)
Coefficient statistics:
  Matrix range     [4e-01, 8e+02]
  Objective range  [1e+00, 1e+00]
  Bounds range     [1e+03, 1e+03]
  RHS range        [1e+00, 6e+06]

MIP start from previous solve did not produce a new incumbent solution

Presolve removed 2726 rows and 850 columns
Presolve time: 0.10s
Presolved: 8717 rows, 3135 columns, 30857 nonzeros
Variable types: 2712 continuous, 423 integer (420 binary)

Root relaxation: objective 1.687241e+04, 4903 iterations, 0.09 seconds (0.08 work units)

    Nodes    |    Current Node    |     Objective Bounds      |     Work
 Expl Unexpl |  Obj  Depth IntInf | Incumbent    BestBd   Gap | It/Node Time

     0     0 16872.4142    0   55          - 16872.4142      -     -    0s
H    0     0                    16207.777778 16872.4142  4.10%     -    0s

Cutting planes:
  Gomory: 19
  MIR: 96
  Flow cover: 132
  Relax-and-lift: 9

Explored 1 nodes (5502 simplex iterations) in 0.51 seconds (0.53 work units)
Thread count was 8 (of 8 available processors)

Solution count 1: 16207.8 

Optimal solution found (tolerance 5.00e-02)
Best objective 1.620777777778e+04, best bound 1.685504612854e+04, gap 3.9936%

User-callback calls 679, time in user-callback 0.00 sec
Gurobi Optimizer version 9.5.2 build v9.5.2rc0 (mac64[arm])
Thread count: 8 physical cores, 8 logical processors, using up to 8 threads
Optimize a model with 12992 rows, 4489 columns and 41362 nonzeros
Model fingerprint: 0xb4e9ec4e
Variable types: 3673 continuous, 816 integer (816 binary)
Coefficient statistics:
  Matrix range     [4e-01, 8e+02]
  Objective range  [1e+00, 1e+00]
  Bounds range     [1e+03, 1e+03]
  RHS range        [1e+00, 6e+06]

MIP start from previous solve did not produce a new incumbent solution

Presolve removed 3109 rows and 970 columns
Presolve time: 0.08s
Presolved: 9883 rows, 3519 columns, 35047 nonzeros
Variable types: 3096 continuous, 423 integer (420 binary)

Root relaxation: objective 1.564555e+04, 6720 iterations, 0.15 seconds (0.15 work units)

    Nodes    |    Current Node    |     Objective Bounds      |     Work
 Expl Unexpl |  Obj  Depth IntInf | Incumbent    BestBd   Gap | It/Node Time

     0     0 15645.5523    0   68          - 15645.5523      -     -    0s
H    0     0                    14658.333333 15645.5523  6.73%     -    0s
     0     0 15626.8464    0  147 14658.3333 15626.8464  6.61%     -    0s
     0     0 15626.4022    0  142 14658.3333 15626.4022  6.60%     -    0s
     0     0 15626.4022    0  142 14658.3333 15626.4022  6.60%     -    0s
     0     0 15619.4641    0  156 14658.3333 15619.4641  6.56%     -    0s
     0     0 15617.8303    0  169 14658.3333 15617.8303  6.55%     -    0s
     0     0 15617.5950    0  174 14658.3333 15617.5950  6.54%     -    0s
     0     0 15617.3738    0  168 14658.3333 15617.3738  6.54%     -    0s
     0     0 15617.3738    0  168 14658.3333 15617.3738  6.54%     -    1s
     0     0 15602.5768    0  192 14658.3333 15602.5768  6.44%     -    1s
H    0     0                    14855.277778 15600.6295  5.02%     -    1s
     0     0 15600.6295    0  190 14855.2778 15600.6295  5.02%     -    1s
     0     0 15600.6230    0  210 14855.2778 15600.6230  5.02%     -    1s
     0     0 15593.2363    0  205 14855.2778 15593.2363  4.97%     -    1s

Cutting planes:
  Gomory: 7
  Cover: 1
  MIR: 271
  Flow cover: 446
  Relax-and-lift: 54

Explored 1 nodes (14369 simplex iterations) in 1.47 seconds (1.76 work units)
Thread count was 8 (of 8 available processors)

Solution count 2: 14855.3 14658.3 

Optimal solution found (tolerance 5.00e-02)
Best objective 1.485527777778e+04, best bound 1.559323626999e+04, gap 4.9677%

User-callback calls 1024, time in user-callback 0.00 sec
Gurobi Optimizer version 9.5.2 build v9.5.2rc0 (mac64[arm])
Thread count: 8 physical cores, 8 logical processors, using up to 8 threads
Optimize a model with 14541 rows, 4993 columns and 46347 nonzeros
Model fingerprint: 0x69b05924
Variable types: 4129 continuous, 864 integer (864 binary)
Coefficient statistics:
  Matrix range     [4e-01, 8e+02]
  Objective range  [1e+00, 1e+00]
  Bounds range     [1e+03, 1e+03]
  RHS range        [1e+00, 6e+06]

MIP start from previous solve did not produce a new incumbent solution

Presolve removed 3492 rows and 1090 columns
Presolve time: 0.09s
Presolved: 11049 rows, 3903 columns, 39237 nonzeros
Variable types: 3480 continuous, 423 integer (420 binary)

Root relaxation: objective 1.520412e+04, 7126 iterations, 0.16 seconds (0.17 work units)

    Nodes    |    Current Node    |     Objective Bounds      |     Work
 Expl Unexpl |  Obj  Depth IntInf | Incumbent    BestBd   Gap | It/Node Time

     0     0 15204.1224    0   81          - 15204.1224      -     -    0s
H    0     0                    13806.111111 15204.1224  10.1%     -    0s
     0     0 15180.6370    0  130 13806.1111 15180.6370  10.0%     -    0s
H    0     0                    14224.074074 15180.6370  6.72%     -    0s
     0     0 15180.6201    0  124 14224.0741 15180.6201  6.72%     -    0s
     0     0 15180.6201    0  124 14224.0741 15180.6201  6.72%     -    0s
     0     0 15171.0567    0  131 14224.0741 15171.0567  6.66%     -    1s
     0     0 15170.9061    0  137 14224.0741 15170.9061  6.66%     -    1s
     0     0 15170.7200    0  128 14224.0741 15170.7200  6.66%     -    1s
     0     0 15170.4970    0  131 14224.0741 15170.4970  6.65%     -    1s
     0     0 15170.4970    0  131 14224.0741 15170.4970  6.65%     -    1s
     0     0 15156.7288    0  151 14224.0741 15156.7288  6.56%     -    1s
     0     0 15155.7985    0  174 14224.0741 15155.7985  6.55%     -    1s
     0     0 15155.5486    0  180 14224.0741 15155.5486  6.55%     -    1s
     0     0 15155.5390    0  183 14224.0741 15155.5390  6.55%     -    1s
H    0     0                    14490.277778 15155.5390  4.59%     -    1s

Cutting planes:
  Gomory: 8
  MIR: 273
  Flow cover: 423
  RLT: 1
  Relax-and-lift: 82

Explored 1 nodes (17587 simplex iterations) in 1.67 seconds (2.10 work units)
Thread count was 8 (of 8 available processors)

Solution count 3: 14490.3 14224.1 13806.1 

Optimal solution found (tolerance 5.00e-02)
Best objective 1.449027777778e+04, best bound 1.515553901997e+04, gap 4.5911%

User-callback calls 1044, time in user-callback 0.00 sec
Gurobi Optimizer version 9.5.2 build v9.5.2rc0 (mac64[arm])
Thread count: 8 physical cores, 8 logical processors, using up to 8 threads
Optimize a model with 16090 rows, 5497 columns and 51332 nonzeros
Model fingerprint: 0x55c6b5fd
Variable types: 4585 continuous, 912 integer (912 binary)
Coefficient statistics:
  Matrix range     [4e-01, 8e+02]
  Objective range  [1e+00, 1e+00]
  Bounds range     [1e+03, 1e+03]
  RHS range        [1e+00, 6e+06]

MIP start from previous solve did not produce a new incumbent solution

Presolve removed 3875 rows and 1210 columns
Presolve time: 0.10s
Presolved: 12215 rows, 4287 columns, 43427 nonzeros
Variable types: 3864 continuous, 423 integer (420 binary)

Root relaxation: objective 1.478153e+04, 8136 iterations, 0.21 seconds (0.23 work units)

    Nodes    |    Current Node    |     Objective Bounds      |     Work
 Expl Unexpl |  Obj  Depth IntInf | Incumbent    BestBd   Gap | It/Node Time

     0     0 14781.5297    0   81          - 14781.5297      -     -    0s
H    0     0                    13581.805556 14781.5297  8.83%     -    0s
     0     0 14764.1722    0  145 13581.8056 14764.1722  8.71%     -    0s
     0     0 14764.1722    0  142 13581.8056 14764.1722  8.71%     -    1s
     0     0 14750.1713    0  145 13581.8056 14750.1713  8.60%     -    1s
     0     0 14749.1576    0  148 13581.8056 14749.1576  8.59%     -    1s
     0     0 14749.1279    0  148 13581.8056 14749.1279  8.59%     -    1s
     0     0 14749.1279    0  148 13581.8056 14749.1279  8.59%     -    1s
     0     0 14733.3186    0  193 13581.8056 14733.3186  8.48%     -    1s
     0     0 14732.6886    0  196 13581.8056 14732.6886  8.47%     -    1s
     0     0 14732.6886    0  199 13581.8056 14732.6886  8.47%     -    1s
H    0     0                    14040.833333 14732.6886  4.93%     -    1s

Cutting planes:
  Gomory: 6
  MIR: 343
  Flow cover: 539
  Relax-and-lift: 93

Explored 1 nodes (17980 simplex iterations) in 1.87 seconds (2.27 work units)
Thread count was 8 (of 8 available processors)

Solution count 2: 14040.8 13581.8 

Optimal solution found (tolerance 5.00e-02)
Best objective 1.404083333333e+04, best bound 1.473268863859e+04, gap 4.9275%

User-callback calls 1131, time in user-callback 0.00 sec
